c cnf generated by mark.reason.ac.CompilerAce written by Mark Chavira
c
c Following are a few statistics:
c
c     Number of potentials               : 20
c     Number of constant potentials      : 0
c     Number of root potentials          : 1
c     Number of zero-one root potentials : 0
c     Number of literals                 : 312
c
p cnf 118 118
1 2 0
-2 -1 0
-2 3 0
-1 4 0
5 6 0
-6 -5 0
-5 -2 7 0
-6 -1 8 0
-5 -1 9 0
-6 -2 10 0
11 12 0
-12 -11 0
-11 -1 13 0
-11 -2 14 0
-12 -2 15 0
-12 -1 16 0
17 18 0
-18 -17 0
-17 -1 19 0
-18 -2 20 0
-17 -2 21 0
-18 -1 22 0
23 24 0
-24 -23 0
-23 -1 25 0
-23 -2 26 0
-24 -2 27 0
-24 -1 28 0
29 30 0
-30 -29 0
-29 -1 31 0
-29 -2 32 0
-30 -2 33 0
-30 -1 34 0
35 36 0
-36 -35 0
-36 -1 37 0
-35 -2 38 0
-36 -2 39 0
-35 -1 40 0
41 42 0
-42 -41 0
-42 -1 43 0
-41 -2 44 0
-42 -2 45 0
-41 -1 46 0
47 48 0
-48 -47 0
-48 -1 49 0
-48 -2 50 0
-47 -2 51 0
-47 -1 52 0
53 54 0
-54 -53 0
-54 -2 55 0
-53 -1 56 0
-54 -1 57 0
-53 -2 58 0
59 60 0
-60 -59 0
-60 -2 61 0
-59 -1 62 0
-60 -1 63 0
-59 -2 64 0
65 66 0
-66 -65 0
-65 -2 67 0
-66 -1 68 0
-65 -1 69 0
-66 -2 70 0
71 72 0
-72 -71 0
-72 -2 73 0
-72 -1 74 0
-71 -1 75 0
-71 -2 76 0
77 78 0
-78 -77 0
-78 -2 79 0
-77 -1 80 0
-78 -1 81 0
-77 -2 82 0
83 84 0
-84 -83 0
-83 -2 85 0
-83 -1 86 0
-84 -1 87 0
-84 -2 88 0
89 90 0
-90 -89 0
-90 -2 91 0
-90 -1 92 0
-89 -1 93 0
-89 -2 94 0
95 96 0
-96 -95 0
-96 -2 97 0
-95 -1 98 0
-96 -1 99 0
-95 -2 100 0
101 102 0
-102 -101 0
-101 -1 103 0
-101 -2 104 0
-102 -2 105 0
-102 -1 106 0
107 108 0
-108 -107 0
-107 -1 109 0
-107 -2 110 0
-108 -2 111 0
-108 -1 112 0
113 114 0
-114 -113 0
-113 -1 115 0
-113 -2 116 0
-114 -2 117 0
-114 -1 118 0
